\ LP format - for model browsing. Use MPS format to capture full model detail.
Maximize
  45.14285714285715 z1 + 24 z2 + 41 z3 + 13.85714285714285 z4 + 26 z5
   + 21.14285714285715 z6 + 19 z7 + 11 z8 + 18 z9 + 31.28571428571428 z10
   + 12.42857142857144 z11 + 45.14285714285715 z12 + 18.85714285714286 z13
   + 31.28571428571428 z14 + 41 z15 + 39 z16 + 33.57142857142858 z17
   + 37.71428571428571 z18 + 46 z19 + 38.57142857142856 z20
Subject To
 constraint1: 47 z1 + 24 z2 + 41 z3 + 14 z4 + 26 z5 + 23 z6 + 19 z7 + 11 z8
   + 18 z9 + 33 z10 + 13 z11 + 46 z12 + 20 z13 + 32 z14 + 41 z15 + 39 z16
   + 36 z17 + 41 z18 + 48 z19 + 40 z20 <= 200
 constraints2_2_&_19: z2 - z19 = 0
 constraints2_3_&_18: z3 - z18 = 0
 constraints2_5_&_16: z5 - z16 = 0
 constraints2_7_&_20: z7 - z20 = 0
 constraints3_1_|_9: z1 + z9 <= 1
 constraints3_2_|_5: z2 + z5 <= 1
 constraints3_2_|_11: z2 + z11 <= 1
 constraints3_3_|_7: z3 + z7 <= 1
 constraints3_3_|_11: z3 + z11 <= 1
 constraints3_3_|_20: z3 + z20 <= 1
 constraints3_4_|_5: z4 + z5 <= 1
 constraints3_5_|_7: z5 + z7 <= 1
 constraints3_5_|_12: z5 + z12 <= 1
 constraints3_5_|_15: z5 + z15 <= 1
 constraints3_7_|_16: z7 + z16 <= 1
 constraints3_7_|_18: z7 + z18 <= 1
 constraints3_8_|_10: z8 + z10 <= 1
 constraints3_9_|_14: z9 + z14 <= 1
 constraints3_11_|_18: z11 + z18 <= 1
 constraints3_11_|_19: z11 + z19 <= 1
 constraints3_12_|_15: z12 + z15 <= 1
 constraints3_14_|_15: z14 + z15 <= 1
 constraints3_18_|_20: z18 + z20 <= 1
Bounds
Binaries
 z1 z2 z3 z4 z5 z6 z7 z8 z9 z10 z11 z12 z13 z14 z15 z16 z17 z18 z19 z20
End
